100
128
33
2
40
63
19
15
43
64
50
9
56
18
23
17
32
10
17
2
18
64
22
60
14
48
19
21
22
56
6
58
2
35
61
26
20
19
51
48
19
1
34
37
60
47
58
21
17
16
20
22
16
56
26
25
25
59
12
19
53
25
32
14
1
20
31
1
32
15
54
38
24
1
14
22
13
12
35
42
33
57
43
45
14
8
49
16
23
4
5
22
57
56
59
34
46
17
9
48
22
4